NAME          DCAP_2_4_3_500_SS371
ROWS
 N  OBJ
 L  CON1
 L  CON2
 L  CON3
 L  CON4
 L  CON5
 L  CON6
 L  CON7
 L  CON8
 L  CON9
 L  CON10
 L  CON11
 L  CON12
 E  CON13
 E  CON14
 E  CON15
 E  CON16
 E  CON17
 E  CON18
 E  CON19
 E  CON20
 E  CON21
 E  CON22
 E  CON23
 E  CON24
COLUMNS
    x[1,1]    OBJ       6.180167      CON1      1.000000    
    x[1,1]    CON7      -1.000000     CON8      -1.000000   
    x[1,1]    CON9      -1.000000   
    x[1,2]    OBJ       6.563535      CON2      1.000000    
    x[1,2]    CON8      -1.000000     CON9      -1.000000   
    x[1,3]    OBJ       7.443064      CON3      1.000000    
    x[1,3]    CON9      -1.000000   
    x[2,1]    OBJ       6.732585      CON4      1.000000    
    x[2,1]    CON10     -1.000000     CON11     -1.000000   
    x[2,1]    CON12     -1.000000   
    x[2,2]    OBJ       5.039546      CON5      1.000000    
    x[2,2]    CON11     -1.000000     CON12     -1.000000   
    x[2,3]    OBJ       6.054841      CON6      1.000000    
    x[2,3]    CON12     -1.000000   
    MARKER    'MARKER'                'INTORG'
    u[1,1]    OBJ       48.076654     CON1      -1.000000   
    u[1,2]    OBJ       20.066487     CON2      -1.000000   
    u[1,3]    OBJ       32.230043     CON3      -1.000000   
    u[2,1]    OBJ       49.996186     CON4      -1.000000   
    u[2,2]    OBJ       49.466655     CON5      -1.000000   
    u[2,3]    OBJ       27.484319     CON6      -1.000000   
    y[1,1,1]  OBJ       5.849789      CON7      0.570095    
    y[1,1,1]  CON13     1.000000    
    y[1,1,2]  OBJ       6.757857      CON8      1.409246    
    y[1,1,2]  CON14     1.000000    
    y[1,1,3]  OBJ       6.475220      CON9      0.764455    
    y[1,1,3]  CON15     1.000000    
    y[1,2,1]  OBJ       7.251734      CON7      1.294867    
    y[1,2,1]  CON16     1.000000    
    y[1,2,2]  OBJ       8.229445      CON8      1.021824    
    y[1,2,2]  CON17     1.000000    
    y[1,2,3]  OBJ       5.091850      CON9      1.007003    
    y[1,2,3]  CON18     1.000000    
    y[1,3,1]  OBJ       8.534321      CON7      0.899094    
    y[1,3,1]  CON19     1.000000    
    y[1,3,2]  OBJ       5.911322      CON8      1.223982    
    y[1,3,2]  CON20     1.000000    
    y[1,3,3]  OBJ       7.476182      CON9      1.091891    
    y[1,3,3]  CON21     1.000000    
    y[1,4,1]  OBJ       6.189534      CON7      1.237542    
    y[1,4,1]  CON22     1.000000    
    y[1,4,2]  OBJ       8.937994      CON8      1.255904    
    y[1,4,2]  CON23     1.000000    
    y[1,4,3]  OBJ       8.997207      CON9      0.954289    
    y[1,4,3]  CON24     1.000000    
    y[2,1,1]  OBJ       7.009585      CON10     0.570095    
    y[2,1,1]  CON13     1.000000    
    y[2,1,2]  OBJ       6.139077      CON11     1.409246    
    y[2,1,2]  CON14     1.000000    
    y[2,1,3]  OBJ       6.954836      CON12     0.764455    
    y[2,1,3]  CON15     1.000000    
    y[2,2,1]  OBJ       6.194347      CON10     1.294867    
    y[2,2,1]  CON16     1.000000    
    y[2,2,2]  OBJ       7.182874      CON11     1.021824    
    y[2,2,2]  CON17     1.000000    
    y[2,2,3]  OBJ       7.180781      CON12     1.007003    
    y[2,2,3]  CON18     1.000000    
    y[2,3,1]  OBJ       7.697816      CON10     0.899094    
    y[2,3,1]  CON19     1.000000    
    y[2,3,2]  OBJ       5.699750      CON11     1.223982    
    y[2,3,2]  CON20     1.000000    
    y[2,3,3]  OBJ       6.462291      CON12     1.091891    
    y[2,3,3]  CON21     1.000000    
    y[2,4,1]  OBJ       8.685454      CON10     1.237542    
    y[2,4,1]  CON22     1.000000    
    y[2,4,2]  OBJ       9.508343      CON11     1.255904    
    y[2,4,2]  CON23     1.000000    
    y[2,4,3]  OBJ       9.390472      CON12     0.954289    
    y[2,4,3]  CON24     1.000000    
    z[1,1]    OBJ       627.421595    CON13     1.000000    
    z[1,2]    OBJ       693.104523    CON14     1.000000    
    z[1,3]    OBJ       540.098331    CON15     1.000000    
    z[2,1]    OBJ       870.093483    CON16     1.000000    
    z[2,2]    OBJ       753.348843    CON17     1.000000    
    z[2,3]    OBJ       747.556629    CON18     1.000000    
    z[3,1]    OBJ       902.086589    CON19     1.000000    
    z[3,2]    OBJ       982.755221    CON20     1.000000    
    z[3,3]    OBJ       593.176858    CON21     1.000000    
    z[4,1]    OBJ       779.080568    CON22     1.000000    
    z[4,2]    OBJ       706.595472    CON23     1.000000    
    z[4,3]    OBJ       641.880392    CON24     1.000000    
    MARKER    'MARKER'                 'INTEND'
RHS
    RHS       CON1      -0.000000     CON2      -0.000000   
    RHS       CON3      -0.000000     CON4      -0.000000   
    RHS       CON5      -0.000000     CON6      -0.000000   
    RHS       CON7      -0.000000     CON8      -0.000000   
    RHS       CON9      -0.000000     CON10     -0.000000   
    RHS       CON11     -0.000000     CON12     -0.000000   
    RHS       CON13     1.000000      CON14     1.000000    
    RHS       CON15     1.000000      CON16     1.000000    
    RHS       CON17     1.000000      CON18     1.000000    
    RHS       CON19     1.000000      CON20     1.000000    
    RHS       CON21     1.000000      CON22     1.000000    
    RHS       CON23     1.000000      CON24     1.000000    
BOUNDS
 BV BOUND     u[1,1]  
 BV BOUND     u[1,2]  
 BV BOUND     u[1,3]  
 BV BOUND     u[2,1]  
 BV BOUND     u[2,2]  
 BV BOUND     u[2,3]  
 BV BOUND     y[1,1,1]
 BV BOUND     y[1,1,2]
 BV BOUND     y[1,1,3]
 BV BOUND     y[1,2,1]
 BV BOUND     y[1,2,2]
 BV BOUND     y[1,2,3]
 BV BOUND     y[1,3,1]
 BV BOUND     y[1,3,2]
 BV BOUND     y[1,3,3]
 BV BOUND     y[1,4,1]
 BV BOUND     y[1,4,2]
 BV BOUND     y[1,4,3]
 BV BOUND     y[2,1,1]
 BV BOUND     y[2,1,2]
 BV BOUND     y[2,1,3]
 BV BOUND     y[2,2,1]
 BV BOUND     y[2,2,2]
 BV BOUND     y[2,2,3]
 BV BOUND     y[2,3,1]
 BV BOUND     y[2,3,2]
 BV BOUND     y[2,3,3]
 BV BOUND     y[2,4,1]
 BV BOUND     y[2,4,2]
 BV BOUND     y[2,4,3]
 BV BOUND     z[1,1]  
 BV BOUND     z[1,2]  
 BV BOUND     z[1,3]  
 BV BOUND     z[2,1]  
 BV BOUND     z[2,2]  
 BV BOUND     z[2,3]  
 BV BOUND     z[3,1]  
 BV BOUND     z[3,2]  
 BV BOUND     z[3,3]  
 BV BOUND     z[4,1]  
 BV BOUND     z[4,2]  
 BV BOUND     z[4,3]  
ENDATA
